c Generated by the Maple GraphTheory package
p edge 40 224
e 1 8
e 8 1
e 1 19
e 19 1
e 1 20
e 20 1
e 1 31
e 31 1
e 2 7
e 7 2
e 2 12
e 12 2
e 2 20
e 20 2
e 2 27
e 27 2
e 3 4
e 4 3
e 3 12
e 12 3
e 3 16
e 16 3
e 4 5
e 5 4
e 4 10
e 10 4
e 4 13
e 13 4
e 4 33
e 33 4
e 4 37
e 37 4
e 4 38
e 38 4
e 5 9
e 9 5
e 5 11
e 11 5
e 5 13
e 13 5
e 5 17
e 17 5
e 5 22
e 22 5
e 5 38
e 38 5
e 6 26
e 26 6
e 6 33
e 33 6
e 7 10
e 10 7
e 7 13
e 13 7
e 7 26
e 26 7
e 7 27
e 27 7
e 8 11
e 11 8
e 8 14
e 14 8
e 8 17
e 17 8
e 8 24
e 24 8
e 8 35
e 35 8
e 9 19
e 19 9
e 9 23
e 23 9
e 9 37
e 37 9
e 10 12
e 12 10
e 10 15
e 15 10
e 10 31
e 31 10
e 11 18
e 18 11
e 11 23
e 23 11
e 11 34
e 34 11
e 12 17
e 17 12
e 12 18
e 18 12
e 12 22
e 22 12
e 12 29
e 29 12
e 12 34
e 34 12
e 12 37
e 37 12
e 13 15
e 15 13
e 13 17
e 17 13
e 13 30
e 30 13
e 13 33
e 33 13
e 13 36
e 36 13
e 13 39
e 39 13
e 14 28
e 28 14
e 14 32
e 32 14
e 14 37
e 37 14
e 14 39
e 39 14
e 14 40
e 40 14
e 15 24
e 24 15
e 15 25
e 25 15
e 16 17
e 17 16
e 16 20
e 20 16
e 16 21
e 21 16
e 16 25
e 25 16
e 16 28
e 28 16
e 17 25
e 25 17
e 18 20
e 20 18
e 18 21
e 21 18
e 18 25
e 25 18
e 18 35
e 35 18
e 18 37
e 37 18
e 19 24
e 24 19
e 19 27
e 27 19
e 19 39
e 39 19
e 20 23
e 23 20
e 20 30
e 30 20
e 20 34
e 34 20
e 21 31
e 31 21
e 21 38
e 38 21
e 22 26
e 26 22
e 22 27
e 27 22
e 22 29
e 29 22
e 22 33
e 33 22
e 22 37
e 37 22
e 23 31
e 31 23
e 24 37
e 37 24
e 25 27
e 27 25
e 25 36
e 36 25
e 25 38
e 38 25
e 26 27
e 27 26
e 26 33
e 33 26
e 26 37
e 37 26
e 27 28
e 28 27
e 27 32
e 32 27
e 27 35
e 35 27
e 27 36
e 36 27
e 27 38
e 38 27
e 27 39
e 39 27
e 28 29
e 29 28
e 30 32
e 32 30
e 30 35
e 35 30
e 30 39
e 39 30
e 31 37
e 37 31
e 31 38
e 38 31
e 31 39
e 39 31
e 32 38
e 38 32
e 32 40
e 40 32
e 35 38
e 38 35
e 36 38
e 38 36
e 37 39
e 39 37
